120
150
89
22
37
79
72
76
22
92
71
77
26
91
33
36
28
86
46
30
74
93
54
99
48
78
60
40
56
48
38
40
65
81
60
87
50
80
38
32
74
76
77
97
40
81
27
36
66
50
34
51
99
99
43
34
36
91
59
84
66
92
59
91
43
30
77
41
68
41
91
59
60
90
50
100
78
71
22
29
99
32
81
76
75
76
91
27
32
50
100
80
76
100
51
99
97
93
99
65
85
76
99
99
20
31
100
22
22
95
84
81
93
89
94
81
97
71
79
98
74
76
